/*********************************************
 * OPL 22.1.1.0 Data
 * Author: student
 * Creation Date: 19 mars 2025 at 19:25:58
 *********************************************/
V = 8;
C = [[0,  1, 0, 0, 1, 1, 0, 0],
      [1, 0, 1, 0, 0, 0, 0, 0],
      [0, 1, 0, 1, 1, 0, 1, 1],
      [0, 0, 1, 0, 0, 0, 0, 1],
      [1, 0, 1, 0, 0, 1, 0, 0],
      [1, 0, 0, 0, 1, 0, 1, 0],
      [0, 0, 1, 0, 0, 1, 0, 1],
      [0, 0, 1, 1, 0, 0, 1, 0]];